(declare-fun ExpandObjSwitcher () Real)
(assert (not (= ExpandObjSwitcher 0.0)))
(assert (not (= ExpandObjSwitcher 1.0)))
(assert (not (= ExpandObjSwitcher 2.0)))
(assert (not (= ExpandObjSwitcher 3.0)))
(assert (not (= ExpandObjSwitcher 4.0)))
(assert (not (= ExpandObjSwitcher 5.0)))
(assert (= ExpandObjSwitcher 6.0))
(assert false)
(check-sat)
